1 57 2 13 15 40 41 42 43 58 87 97
2 28 1 3 12 26 27 50 52 53 68 69 70 76 77 80 101
3 9 20 29 30 33 34 35 51 65 66 71 78 79 81
4 4 21 22 23 24 25 39 54 55 56 67 72 73 74 75
5 19 7 8 10 11 31 32 36 46 47 48 49 62 63 64 82 88 90
6 93 5 6 14 16 17 18 37 38 44 45 59 60 61 83 84 85 86 89 91 92 94 95 96 98 99 100
